c --- [ banner ] -------------------------------------------------------------
c 
c CaDiCaL SAT Solver
c Copyright (c) 2016-2025
c A. Biere, M. Fleury, N. Froleyks, K. Fazekas, F. Pollitt, T. Faller
c JKU Linz, University of Freiburg, TU Wien
c 
c Version 3.0.0 7b99c07f0bcab5824a5a3ce62c7066554017f641
c Apple clang version 21.0.0 (clang-2100.0.123.102) -Wall -Wextra -O3 -DNDEBUG -DNCLOSEFROM
c Thu Apr 23 22:35:47 PDT 2026 Darwin dada-mun-26.local 25.4.0 arm64
c 
c --- [ limit ] --------------------------------------------------------------
c 
c setting time limit to 180 seconds real time (due to '-t 180')
c 
c --- [ parsing input ] ------------------------------------------------------
c 
c reading DIMACS file from '/private/tmp/p97-ordinal-sharesFirstAtSource.cnf'
c opening file to read '/private/tmp/p97-ordinal-sharesFirstAtSource.cnf'
c found 'p cnf 58048 313821' header
c parsed 313821 clauses in 0.06 seconds process time
c 
c --- [ options ] ------------------------------------------------------------
c 
c   --compact=false                (different from default 'true')
c   --congruence=false             (different from default 'true')
c   --decompose=false              (different from default 'true')
c   --deduplicate=false            (different from default 'true')
c   --eagersubsume=false           (different from default 'true')
c   --elim=false                   (different from default 'true')
c   --factor=false                 (different from default 'true')
c   --factorunbump=false           (different from default 'true')
c   --fastelim=false               (different from default 'true')
c   --inprobing=false              (different from default 'true')
c   --inprocessing=false           (different from default 'true')
c   --preprocesslight=false        (different from default 'true')
c   --probe=false                  (different from default 'true')
c   --subsume=false                (different from default 'true')
c   --sweep=false                  (different from default 'true')
c   --ternary=false                (different from default 'true')
c   --transred=false               (different from default 'true')
c   --vivify=false                 (different from default 'true')
c 
c --- [ solving ] ------------------------------------------------------------
c 
c time measured in process time since initialization
c 
c  seconds  reduction conflicts       size tier2        variables
c         MB    restarts   redundant    glue  trail          remaining
c          level     rate       size/glu tier1  irredundant
c 
c *  0.06  0  0 0   0  0    0    0 0.0 0 0 2 6  0% 313029 57408 99%
c )  0.06  0  0 0   0  0    0    0 0.0 0 0 2 6  0% 313029 57408 99%
c {  0.06  0  0 0   0  0    0    0 0.0 0 0 2 6  0% 313029 57408 99%
c i  0.06  0  8 0   0  3    5    4 2.3 2 1 2 6  1% 313029 57406 99%
c i  0.06  0 10 0   0  3   10    7 2.3 2 1 2 6  2% 313029 57187 99%
c i  0.06  0 12 0   0  3   19   15 2.1 2 1 2 6  2% 313029 57060 98%
c i  0.06  0 59 0   0  6   69   63 1.9 2 1 2 6  6% 313029 57059 98%
c i  0.06  0 55 0   3  6   85   76 1.9 3 1 2 6  6% 313029 56897 98%
c i  0.06  0 56 0   6  9   96   85 1.9 3 2 2 6  6% 313029 56893 98%
c i  0.06  0 85 0   9 17  112  100 1.5 4 3 2 6  6% 313029 56892 98%
c i  0.07  0 154 0  30 33  192  168 1.5 5 3 2 6  8% 313029 56891 98%
c i  0.07  0 134 0  43 29  243  215 1.4 6 4 2 6  8% 313029 56890 98%
c i  0.07  0 133 0  44 29  244  215 1.4 6 4 2 6  8% 313029 56886 98%
c -  0.12  0 706 1  57 186  300  208 1.4 6 4 2 6 12% 307396 56886 98%
c i  0.13  0 619 1  71 163  352  252 1.4 7 5 2 6 13% 307396 56881 98%
c i  0.21  0 331 1 143 80  850  662 1.6 8 5 2 6 20% 307396 56880 98%
c -  0.26  0 312 2 167 75  945  594 1.6 9 5 2 6 21% 307361 56880 98%
c }  0.27  0 298 2 178 72 1003  643 1.6 9 5 2 6 21% 307361 56880 98%
c [  0.27  0  0 2 178  0 1003  643 0.0 0 0 2 6  0% 307361 56880 98%
c O  0.27  0 28 2 178 29 1004  644 1.1 15 14 2 6  6% 307361 56880 98%
c 
c  seconds  reduction conflicts       size   tier2        variables
c         MB    restarts   redundant     glue   trail          remaining
c          level     rate       size/glue  tier1  irredundant
c 
c ]  0.40  0 68 2 178  3 2072 1640 2.5 29 11 2 6 23% 307361 56880 98%
c {  0.40  0 298 2 178 72 2072 1640 1.6 9 5 2 6 21% 307361 56880 98%
c -  0.43  0 296 3 182 71 2089 1156 1.6 9 5 2 6 21% 307361 56880 98%
c O  0.52  0 213 3 266 44 3005 1949 1.6 9 6 2 6 22% 307361 56880 98%
c -  0.60  0 178 4 351 35 3787 2000 1.7 10 6 2 6 22% 307361 56880 98%
c i  0.71  0 159 4 440 28 4956 2985 1.7 10 6 2 6 22% 307361 56877 98%
c i  0.78  0 154 4 482 26 5649 3582 1.7 10 6 2 3 23% 307361 56875 98%
c #  0.83  0 151 4 528 25 6006 3885 1.7 10 6 2 3 23% 307361 56875 98%
c -  0.86  0 151 5 532 25 6075 2518 1.7 10 6 2 3 23% 307333 56875 98%
c i  0.91  0 148 5 585 25 6390 2787 1.7 10 6 2 3 23% 307333 56873 98%
c }  1.02  0 146 5 622 22 7546 3694 1.7 10 6 2 3 25% 307333 56872 98%
c [  1.02  0 68 5 622  3 7546 3694 2.5 29 11 2 6 23% 307333 56872 98%
c i  1.02  0 70 5 622  3 7572 3716 2.5 28 11 2 6 23% 307333 56871 98%
c i  1.12  0 83 5 624  3 8738 4800 2.6 27 10 2 6 28% 307333 56870 98%
c -  1.17  0 79 6 624  3 8973 3360 2.6 26 10 2 6 28% 307306 56870 98%
c I  1.26  0 80 6 624  3 10007 4337 2.4 25 10 3 9 30% 307306 56870 98%
c i  1.42  0 80 6 625  3 11567 5779 2.2 25 11 3 9 28% 307306 56869 98%
c -  1.53  0 78 7 626  3 12496 4216 2.1 24 11 3 9 27% 307300 56869 98%
c i  1.61  0 74 7 626  3 13051 4742 2.0 25 12 3 9 26% 307300 56867 98%
c ]  1.62  0 74 7 627  3 13161 4846 2.0 24 12 3 9 26% 307300 56865 98%
c 
c  seconds   reductions conflicts       size  tier2        variables
c         MB     restarts    redundant     glue  trail          remaining
c           level     rate        size/glue tier1  irredundant
c 
c {  1.62  0 146 7 627 22 13161 4846 1.7 10 6 2 3 25% 307300 56865 98%
c i  1.67  0 143 7 675 21 13786 5385 1.8 10 6 2 3 24% 307300 56858 98%
c B  1.82  0 138 7 778 20 15008 6421 1.8 10 6 2 3 24% 307300 56856 98%
c -  2.03  0 135 8 921 19 16653 5469 1.8 10 6 2 3 25% 307235 56856 98%
c i  2.13  0 131 8 979 18 17789 6470 1.8 10 6 2 3 25% 307235 56853 98%
c i  2.14  0 130 8 1005 18 17982 6638 1.8 10 6 2 3 25% 307235 56849 98%
c W  2.55  0 127 8 1212 16 21009 9180 1.8 10 6 2 3 24% 307175 56844 98%
c -  2.62  0 126 9 1275 16 21451 7125 1.8 10 6 2 3 24% 307175 56844 98%
c }  3.04  0 121 9 1563 15 24955 10180 1.8 11 6 2 3 24% 307175 56844 98%
c [  3.04  0 74 9 1563  3 24955 10180 2.0 24 12 3 9 26% 307175 56844 98%
c -  3.30  0 75 10 1563  3 26897 8846 2.2 28 13 3 9 27% 307175 56844 98%
c B  3.43  0 72 10 1564  3 28010 9915 2.2 28 13 3 9 26% 307175 56844 98%
c i  3.64  0 70 10 1564  3 29886 11728 2.2 28 13 3 9 27% 307175 56843 98%
c -  4.02  0 63 11 1566  2 32995 9914 2.2 29 13 3 9 27% 307166 56843 98%
c W  4.44  0 62 11 1568  2 36013 12827 2.2 30 14 3 9 27% 307166 56843 98%
c ]  4.45  0 63 11 1568  2 36107 12917 2.2 30 14 3 9 27% 307166 56843 98%
c {  4.45  0 121 11 1568 15 36107 12917 1.8 11 6 2 3 24% 307166 56843 98%
c -  4.94  0 119 12 1926 15 39749 11256 1.8 11 6 2 3 24% 307166 56843 98%
c i  5.23  0 117 12 2130 15 41992 13250 1.8 11 6 2 3 25% 307166 56842 98%
c F  5.61  0 115 12 2376 14 45014 15950 1.8 11 6 2 3 25% 307166 56842 98%
c 
c  seconds   reductions   conflicts        size  tier2        variables
c         MB      restarts      redundant     glue  trail          remaining
c           level       rate         size/glue tier1  irredundant
c 
c -  5.93  0 114 13 2570 14 47164 13504 1.8 11 6 2 3 25% 307160 56842 98%
c i  6.09  0 114 13 2695 14 48293 14519 1.8 11 6 2 3 25% 307160 56839 98%
c }  6.92  0 110 13 3346 14 54252 19966 1.8 11 6 2 3 25% 307160 56839 98%
c [  6.92  0 63 13 3346  2 54252 19966 2.2 30 14 3 9 27% 307160 56839 98%
c O  6.99  0 62 13 3347  2 55016 20679 2.2 29 14 3 9 27% 307160 56839 98%
c -  7.04  0 62 14 3347  2 55238 15798 2.2 29 13 3 9 27% 307147 56839 98%
c -  8.27  0 53 15 3350  2 63976 17009 2.2 31 14 3 9 24% 307147 56839 98%
c B  8.52  0 51 15 3350  2 66017 19003 2.3 32 14 3 9 24% 307147 56839 98%
c ]  9.25  0 58 15 3351  2 71586 24305 2.2 32 15 2 6 24% 307147 56839 98%
c {  9.25  0 110 15 3351 14 71586 24305 1.8 11 6 2 3 25% 307147 56839 98%
c -  9.50  0 110 16 3503 14 73381 18096 1.8 11 6 2 3 25% 307147 56839 98%
c B 10.18  0 108 16 3977 14 78018 22263 1.8 11 6 2 3 25% 307147 56839 98%
c - 10.97  0 106 17 4516 13 83462 20895 1.9 11 6 2 3 25% 307147 56839 98%
c W 12.38  0 104 17 5294 13 91019 27768 1.9 12 6 2 3 25% 307147 56839 98%
c - 12.87  0 103 18 5616 13 94203 23987 1.9 12 6 2 3 25% 307147 56839 98%
c } 13.34  0 103 18 5974 13 97031 26571 1.9 12 6 2 3 25% 307147 56839 98%
c [ 13.34  0 58 18 5974  2 97031 26571 2.2 32 15 2 6 24% 307147 56839 98%
c W 14.58  0 58 18 5980  2 105020 34297 2.1 33 15 2 6 25% 307147 56839 98%
c - 14.69  0 58 19 5980  2 105615 25982 2.1 33 15 2 6 25% 307147 56839 98%
c i 15.74  0 55 19 5984  2 114173 34194 2.1 32 15 2 6 24% 307147 56838 98%
c 
c  seconds  reductions   conflicts         size   tier2        variables
c         MB     restarts       redundant     glue   trail          remaining
c          level       rate          size/glue  tier1  irredundant
c 
c - 16.20  0 54 20 5987  2 117700 27471 2.1 32 15 2 6 23% 307141 56838 98%
c I 16.49  0 53 20 5987  2 120021 29724 2.1 32 15 2 6 23% 307141 56838 98%
c i 17.20  0 53 20 5988  2 125064 34574 2.2 32 15 2 6 24% 307141 56837 98%
c ] 17.23  0 53 20 5988  2 125346 34844 2.2 32 15 2 6 24% 307141 56837 98%
c { 17.23  0 103 20 5988 13 125346 34844 1.9 12 6 2 3 25% 307141 56837 98%
c - 18.12  0 102 21 6578 13 130455 29712 1.9 12 6 2 3 25% 307135 56837 98%
c # 19.04  0 101 21 7259 13 136023 34818 1.9 12 6 2 3 25% 307135 56837 98%
c i 20.28  0 100 21 7964 13 143693 41850 1.9 12 6 1 2 26% 307135 56836 98%
c - 20.34  0 100 22 7994 13 143884 24795 1.9 12 6 1 2 25% 307125 56836 98%
c B 21.61  0 99 22 8854 13 153026 33154 1.9 12 6 1 2 26% 307125 56836 98%
c - 22.37  0 98 23 9309 13 157989 25097 1.9 12 6 1 2 26% 307125 56836 98%
c } 22.92  0 98 23 9669 13 161311 28173 1.9 12 6 1 2 26% 307125 56836 98%
c [ 22.92  0 53 23 9669  2 161311 28173 2.2 32 15 2 6 24% 307125 56836 98%
c B 24.10  0 55 23 9670  2 171027 37515 2.3 33 15 2 6 24% 307125 56836 98%
c - 24.42  0 55 24 9670  2 172766 25802 2.2 33 15 2 6 24% 307125 56836 98%
c - 27.22  0 52 25 9674  2 188221 25415 2.4 36 15 2 6 24% 307125 56836 98%
c W 27.91  0 52 25 9676  2 190028 27162 2.3 36 15 2 6 24% 307125 56836 98%
c ] 28.71  0 51 25 9678  2 195744 32737 2.3 36 16 2 6 24% 307125 56836 98%
c { 28.71  0 98 25 9678 13 195744 32737 1.9 12 6 1 2 26% 307125 56836 98%
c - 30.02  0 96 26 10510 12 204353 26642 1.9 12 6 1 2 25% 307125 56836 98%
c 
c  seconds  reductions    conflicts         size  tier2        variables
c         MB      restarts       redundant     glue  trail          remaining
c          level        rate          size/glue tier1  irredundant
c 
c i 30.75  0 96 26 11070 12 209012 30865 1.9 12 7 1 2 25% 307125 56832 98%
c W 31.06  0 95 26 11175 12 210029 31814 1.9 12 7 1 2 25% 307102 56832 98%
c - 32.80  0 94 27 12254 12 221161 29127 1.9 13 7 1 2 25% 307102 56832 98%
c F 34.27  0 94 27 13206 12 231030 38268 1.9 13 7 1 2 25% 307102 56832 98%
c - 35.53  0 93 28 13911 12 238645 31683 1.9 13 7 1 2 26% 307102 56832 98%
c } 36.50  0 93 28 14537 12 244667 37243 1.9 13 7 1 2 26% 307102 56832 98%
c [ 36.50  0 51 28 14537  2 244667 37243 2.3 36 16 2 6 24% 307102 56832 98%
c O 37.55  0 51 28 14543  2 253031 45375 2.3 35 15 2 6 24% 307102 56832 98%
c - 38.17  0 50 29 14543  2 256807 33304 2.3 35 15 2 6 24% 307102 56832 98%
c - 41.29  0 47 30 14551  2 275649 33487 2.3 35 15 2 5 24% 307102 56832 98%
c B 41.35  0 47 30 14551  2 276038 33863 2.3 35 15 2 5 24% 307102 56832 98%
c i 42.48  0 48 30 14556  2 284349 41921 2.2 35 16 2 5 24% 307102 56831 98%
c - 43.93  0 47 31 14559  2 295171 33479 2.2 36 16 2 5 24% 307096 56831 98%
c ] 44.11  0 47 31 14559  2 296619 34878 2.2 35 16 2 5 24% 307096 56831 98%
c { 44.11  0 93 31 14559 12 296619 34878 1.9 13 7 1 2 26% 307096 56831 98%
c B 44.67  0 93 31 14910 12 300040 38049 1.9 13 7 1 2 26% 307096 56831 98%
c - 47.16  0 92 32 16290 12 315372 36062 2.0 13 7 1 2 26% 307096 56831 98%
c W 49.34  0 92 32 17268 12 325042 45073 2.0 13 7 1 2 26% 307096 56831 98%
c - 51.36  0 92 33 18388 11 336255 39252 2.0 13 7 1 2 26% 307096 56831 98%
c # 53.99  0 91 33 19900 11 351043 53028 2.0 13 7 1 2 26% 307096 56831 98%
c 
c  seconds  reductions    conflicts         size  tier2        variables
c         MB      restarts       redundant     glue  trail          remaining
c          level        rate          size/glue tier1  irredundant
c 
c } 55.09  0 91 33 20582 11 357336 58907 2.0 13 7 1 2 26% 307096 56831 98%
c [ 55.09  0 47 33 20582  2 357336 58907 2.2 35 16 2 5 24% 307096 56831 98%
c - 55.20  0 47 34 20582  2 357814 41867 2.2 35 16 2 5 24% 307096 56831 98%
c W 58.47  0 51 34 20584  2 378044 61623 2.1 37 18 2 5 24% 307096 56831 98%
c - 58.77  0 51 35 20584  2 380054 42524 2.1 37 18 2 5 24% 307096 56831 98%
c - 61.75  0 50 36 20584  2 402975 41832 2.1 37 17 2 6 23% 307096 56831 98%
c I 62.15  0 50 36 20584  2 406046 44825 2.1 37 17 2 6 23% 307096 56831 98%
c i 64.78  0 52 36 20591  2 422867 61209 2.1 38 18 2 6 24% 307096 56830 98%
c - 65.28  0 53 37 20594  2 426580 42928 2.1 38 18 2 6 24% 307087 56830 98%
c ] 65.49  0 53 37 20595  2 428162 44457 2.2 38 18 2 6 24% 307087 56830 98%
c { 65.49  0 91 37 20595 11 428162 44457 2.0 13 7 1 2 26% 307087 56830 98%
c B 66.55  0 90 37 21175 11 435047 50879 2.0 13 7 1 2 26% 307087 56830 98%
c i 67.35  0 90 37 21618 11 439497 55003 2.0 14 7 1 2 26% 307087 56829 98%
c - 69.45  0 90 38 22816 11 450865 46056 2.0 14 7 1 2 26% 307081 56829 98%
c W 72.06  0 90 38 24081 11 465048 59163 2.0 14 7 1 2 27% 307081 56829 98%
c - 73.94  0 90 39 25026 11 475831 49637 2.0 14 7 1 2 27% 307081 56829 98%
c F 77.73  0 89 39 26870 11 496049 68410 2.0 14 7 1 2 27% 307081 56829 98%
c - 78.93  0 89 40 27411 11 501479 52380 2.0 14 7 1 2 27% 307081 56829 98%
c } 79.76  0 89 40 27781 11 505822 56399 2.0 14 7 1 2 27% 307081 56829 98%
c [ 79.76  0 53 40 27781  2 505822 56399 2.2 38 18 2 6 24% 307081 56829 98%
c 
c  seconds  reductions    conflicts         size   tier2        variables
c         MB      restarts       redundant     glue   trail          remaining
c          level        rate          size/glue  tier1  irredundant
c 
c - 83.43  0 51 41 27790  2 527807 53658 2.1 37 17 2 6 25% 307081 56829 98%
c B 83.46  0 51 41 27790  2 528050 53895 2.1 37 17 2 6 25% 307081 56829 98%
c - 87.61  0 49 42 27800  2 554818 53018 2.2 39 18 2 6 24% 307081 56829 98%
c W 89.00  0 49 42 27801  2 561051 59094 2.2 40 18 2 6 24% 307081 56829 98%
c - 92.82  0 49 43 27808  2 582512 52959 2.2 41 18 2 6 24% 307081 56829 98%
c ] 94.10  0 49 43 27813  2 590258 60511 2.3 41 18 2 6 25% 307081 56829 98%
c { 94.10  0 89 43 27813 11 590258 60511 2.0 14 7 1 2 27% 307081 56829 98%
c B 94.94  0 89 43 28198 11 595052 64998 2.0 14 7 1 2 27% 307081 56829 98%
c - 98.01  0 88 44 29576 11 610889 55906 2.0 14 7 1 2 27% 307081 56829 98%
c W 102.19  0 88 44 31349 10 630053 73785 2.0 14 7 1 2 27% 307081 56829 98%
c - 104.25  0 88 45 32138 10 639948 59985 2.0 14 7 1 2 27% 307081 56829 98%
c # 109.33  0 87 45 34273 10 666054 84245 2.0 15 7 1 2 27% 307081 56829 98%
c - 110.16  0 87 46 34578 10 669691 63307 2.0 15 7 1 2 27% 307081 56829 98%
c } 113.76  0 87 46 36113 10 687479 79853 2.0 15 7 1 2 27% 307081 56829 98%
c [ 113.76  0 49 46 36113  2 687479 79853 2.3 41 18 2 6 25% 307081 56829 98%
c - 115.84  0 49 47 36116  2 700117 65662 2.3 41 18 2 6 24% 307081 56829 98%
c O 116.27  0 49 47 36116  2 703055 68537 2.3 40 18 2 6 24% 307081 56829 98%
c - 121.99  0 47 48 36131  2 731229 65593 2.2 42 19 2 7 24% 307081 56829 98%
c B 123.79  0 46 48 36132  2 741056 75225 2.2 42 19 2 7 24% 307081 56829 98%
c i 126.63  0 45 48 36133  2 758518 92294 2.2 41 18 2 7 24% 307081 56828 98%
c 
c  seconds   reductions    conflicts         size   tier2        variables
c          MB      restarts       redundant     glue   trail          remaining
c           level        rate          size/glue  tier1  irredundant
c 
c - 127.43  0 44 49 36133  2 763022 64481 2.2 41 18 2 7 23% 307072 56828 98%
c W 131.01  0 42 49 36133  2 780058 81055 2.2 40 18 2 7 23% 307072 56828 98%
c ] 131.49  0 42 49 36133  2 783226 84099 2.2 40 18 2 7 23% 307072 56828 98%
c { 131.49  0 87 49 36133 10 783226 84099 2.0 15 7 1 2 27% 307072 56828 98%
c - 133.58  0 87 50 36869 10 795498 66557 2.0 15 7 1 2 27% 307072 56828 98%
c B 138.28  0 87 50 38858 10 820059 89288 2.0 15 7 1 2 27% 307072 56828 98%
c - 140.17  0 87 51 39652 10 828658 70436 2.0 15 7 1 2 27% 307072 56828 98%
c W 146.77  0 87 51 42414 10 861061 100672 2.1 15 7 1 2 28% 307072 56828 98%
c - 147.11  0 87 52 42557 10 862503 74546 2.1 15 7 1 2 28% 307072 56828 98%
c - 153.72  0 86 53 45732 10 897032 77359 2.0 15 7 1 2 28% 307072 56828 98%
c } 153.89  0 86 53 45793 10 898016 78284 2.1 15 7 1 2 28% 307072 56828 98%
c [ 153.89  0 42 53 45793  2 898016 78284 2.2 40 18 2 7 23% 307072 56828 98%
c I 154.58  0 43 53 45794  2 903064 83187 2.3 40 18 2 7 23% 307072 56828 98%
c - 160.20  0 46 54 45794  2 932245 78364 2.5 45 18 2 7 24% 307072 56828 98%
c B 162.80  0 49 54 45794  2 946066 91844 2.4 47 20 2 7 24% 307072 56828 98%
c - 167.49  0 51 55 45794  2 968144 76264 2.2 47 21 2 7 24% 307072 56828 98%
c W 172.62  0 52 55 45808  2 990067 97696 2.1 46 22 2 7 24% 307072 56828 98%
c ] 174.80  0 52 55 45809  2 1001253 108601 2.1 46 21 2 7 24% 307072 56828 98%
c { 174.80  0 86 55 45809 10 1001253 108601 2.1 15 7 1 2 28% 307072 56828 98%
c - 175.45  0 86 56 46039 10 1004728 76821 2.1 15 7 1 2 28% 307072 56828 98%
c 
c  seconds   reductions     conflicts         size  tier2        variables
c          MB      restarts        redundant     glue  trail          remaining
c           level        rate           size/glue tier1  irredundant
c 
c } 179.89  0 86 56 47969  9 1029108 99573 2.1 15 7 1 2 28% 307072 56828 98%
c ? 179.89  0 86 56 47969  9 1029108 99573 2.1 15 7 1 2 28% 307072 56828 98%
c 
c --- [ result ] -------------------------------------------------------------
c 
c writing result to '/private/tmp/p97-ordinal-sharesFirstAtSource.sol'
c 
c --- [ run-time profiling ] -------------------------------------------------
c 
c process time taken by individual solving procedures
c (percentage relative to process time for solving)
c 
c       179.83  100.00% search
c        92.33   51.34% unstable
c        82.21   45.71% stable
c         5.29    2.94% walk
c         0.06    0.03% parse
c         0.00    0.00% lucky
c         0.00    0.00% simplify
c   =================================
c       179.83   99.97% solve
c 
c last line shows process time for solving
c (percentage relative to total process time)
c 
c --- [ statistics ] ---------------------------------------------------------
c 
c chronological:            452209        43.94 %  of conflicts
c conflicts:               1029108      5722.67    per second
c decisions:               6386968     35516.69    per second
c fixed:                      1220         2.10 %  of all variables
c learned:                  975289        94.77 %  per conflict
c learned_lits:           35729541       100.00 %  learned literals
c minimized:                     0         0.00 %  learned literals
c shrunken:                4267136        11.94 %  learned literals
c minishrunken:            4485996        12.56 %  learned literals
c otfs:                      16694         1.62 %  of conflict
c propagations:         2173072830        12.08 M  per second
c reduced:                  875393        85.06 %  per conflict
c rephased:                     44     23388.82    interval
c restarts:                  47969        21.45    interval
c stabilizing:                  11        48.78 %  of conflicts
c subsumed:                    408         0.03 %  of all clauses
c strengthened:              16490         1.28 %  of all clauses
c ticks:               10894081831         5.01    propagation
c walked:                       14     73507.71    interval
c 
c seconds are measured in process time for solving
c 
c --- [ glue usage ] ---------------------------------------------------------
c 
c focused glue 1 used 1021688 clauses 63.58% accumulated 63.58% tier1
c focused glue 2 used 264485 clauses 16.45% accumulated 80.04% tier2
c 
c stable glue 2 used 529548 clauses 12.55% accumulated 57.00% tier1
c stable glue 3 used 226553 clauses 5.372% accumulated 62.37%
c stable glue 4-5 used 392506 clauses 9.308% accumulated 71.68%
c stable glue 6 used 150739 clauses 3.574% accumulated 75.26%
c stable glue 7 used 122677 clauses 2.909% accumulated 78.17% tier2
c 
c 
c --- [ resources ] ----------------------------------------------------------
c 
c total process time since initialization:       179.89    seconds
c total real time since initialization:          180.01    seconds
c maximum resident set size of process:       371312.00    MB
c 
c --- [ shutting down ] ------------------------------------------------------
c 
c exit 0
